ilp_joint/output/acceleration_ilp.lp
Maximize
  0.00873983174174099 Z_65_0_0 + 0.631003301193591 Z_65_0_1
   + 0.0417469868753686 Z_65_0_2 + 0.1558513407647059 Z_65_0_3
   + 0.0626585394245935 Z_65_0_4 + 0.00198171803189527 Z_406_0_0
   + 0.00323463411996027 Z_406_0_1 + 0.6855216076440765 Z_406_0_2
   + 0.0016196432358604 Z_406_0_3 + 0.2076423969682075 Z_406_0_4
Subject To
 constraint1_650: Z_65_0_0 + Z_65_0_1 + Z_65_0_2 + Z_65_0_3 + Z_65_0_4
   <= 1
 constraint1_4060: Z_406_0_0 + Z_406_0_1 + Z_406_0_2 + Z_406_0_3
   + Z_406_0_4 <= 1
 constraint2_650: Z_65_0_0 <= 1
 constraint2_651: Z_65_0_1 <= 1
 constraint2_652: Z_65_0_2 <= 1
 constraint2_653: Z_65_0_3 <= 1
 constraint2_6070: <= 1
 constraint2_6071: <= 1
 constraint2_6072: <= 1
 constraint2_6073: <= 1
 constraint2_4410: <= 1
 constraint2_4411: <= 1
 constraint2_4412: <= 1
 constraint2_4413: <= 1
 constraint2_3000: <= 1
 constraint2_3001: <= 1
 constraint2_3002: <= 1
 constraint2_3003: <= 1
 constraint2_2050: <= 1
 constraint2_2051: <= 1
 constraint2_2052: <= 1
 constraint2_2053: <= 1
 constraint2_3350: <= 1
 constraint2_3351: <= 1
 constraint2_3352: <= 1
 constraint2_3353: <= 1
 constraint2_4060: Z_406_0_0 <= 1
 constraint2_4061: Z_406_0_1 <= 1
 constraint2_4062: Z_406_0_2 <= 1
 constraint2_4063: Z_406_0_3 <= 1
Bounds
Binaries
 Z_65_0_0 Z_65_0_1 Z_65_0_2 Z_65_0_3 Z_65_0_4 Z_406_0_0 Z_406_0_1 Z_406_0_2
 Z_406_0_3 Z_406_0_4
End
