ilp_joint/output/acceleration_ilp.mps
NAME acceleration_srl_ilp
* Max problem is converted into Min one
ROWS
 N  OBJ
 L  constraint1_650
 L  constraint1_4060
 L  constraint2_650
 L  constraint2_651
 L  constraint2_652
 L  constraint2_653
 L  constraint2_6070
 L  constraint2_6071
 L  constraint2_6072
 L  constraint2_6073
 L  constraint2_4410
 L  constraint2_4411
 L  constraint2_4412
 L  constraint2_4413
 L  constraint2_3000
 L  constraint2_3001
 L  constraint2_3002
 L  constraint2_3003
 L  constraint2_2050
 L  constraint2_2051
 L  constraint2_2052
 L  constraint2_2053
 L  constraint2_3350
 L  constraint2_3351
 L  constraint2_3352
 L  constraint2_3353
 L  constraint2_4060
 L  constraint2_4061
 L  constraint2_4062
 L  constraint2_4063
COLUMNS
    MARKER    'MARKER'                 'INTORG'
    Z_65_0_0  OBJ       -8.7398317417409898e-03
    Z_65_0_0  constraint1_650  1
    Z_65_0_0  constraint2_650  1
    Z_65_0_1  OBJ       -6.3100330119359105e-01
    Z_65_0_1  constraint1_650  1
    Z_65_0_1  constraint2_651  1
    Z_65_0_2  OBJ       -4.1746986875368576e-02
    Z_65_0_2  constraint1_650  1
    Z_65_0_2  constraint2_652  1
    Z_65_0_3  OBJ       -1.5585134076470591e-01
    Z_65_0_3  constraint1_650  1
    Z_65_0_3  constraint2_653  1
    Z_65_0_4  OBJ       -6.2658539424593471e-02
    Z_65_0_4  constraint1_650  1
    Z_406_0_0  OBJ       -1.9817180318952650e-03
    Z_406_0_0  constraint1_4060  1
    Z_406_0_0  constraint2_4060  1
    Z_406_0_1  OBJ       -3.2346341199602710e-03
    Z_406_0_1  constraint1_4060  1
    Z_406_0_1  constraint2_4061  1
    Z_406_0_2  OBJ       -6.8552160764407655e-01
    Z_406_0_2  constraint1_4060  1
    Z_406_0_2  constraint2_4062  1
    Z_406_0_3  OBJ       -1.6196432358603998e-03
    Z_406_0_3  constraint1_4060  1
    Z_406_0_3  constraint2_4063  1
    Z_406_0_4  OBJ       -2.0764239696820755e-01
    Z_406_0_4  constraint1_4060  1
    MARKER    'MARKER'                 'INTEND'
RHS
    RHS1      constraint1_650  1
    RHS1      constraint1_4060  1
    RHS1      constraint2_650  1
    RHS1      constraint2_651  1
    RHS1      constraint2_652  1
    RHS1      constraint2_653  1
    RHS1      constraint2_6070  1
    RHS1      constraint2_6071  1
    RHS1      constraint2_6072  1
    RHS1      constraint2_6073  1
    RHS1      constraint2_4410  1
    RHS1      constraint2_4411  1
    RHS1      constraint2_4412  1
    RHS1      constraint2_4413  1
    RHS1      constraint2_3000  1
    RHS1      constraint2_3001  1
    RHS1      constraint2_3002  1
    RHS1      constraint2_3003  1
    RHS1      constraint2_2050  1
    RHS1      constraint2_2051  1
    RHS1      constraint2_2052  1
    RHS1      constraint2_2053  1
    RHS1      constraint2_3350  1
    RHS1      constraint2_3351  1
    RHS1      constraint2_3352  1
    RHS1      constraint2_3353  1
    RHS1      constraint2_4060  1
    RHS1      constraint2_4061  1
    RHS1      constraint2_4062  1
    RHS1      constraint2_4063  1
BOUNDS
 UP BND1      Z_65_0_0  1
 UP BND1      Z_65_0_1  1
 UP BND1      Z_65_0_2  1
 UP BND1      Z_65_0_3  1
 UP BND1      Z_65_0_4  1
 UP BND1      Z_406_0_0  1
 UP BND1      Z_406_0_1  1
 UP BND1      Z_406_0_2  1
 UP BND1      Z_406_0_3  1
 UP BND1      Z_406_0_4  1
ENDATA
