ilp_joint/output/acceleration_ilp.sol
# Solution for model acceleration_srl_ilp
# Objective value = 1.3165249088376676e+00
Z_65_0_0 0
Z_65_0_1 1
Z_65_0_2 0
Z_65_0_3 0
Z_65_0_4 0
Z_406_0_0 0
Z_406_0_1 0
Z_406_0_2 1
Z_406_0_3 0
Z_406_0_4 0
